nbObj= 100;
Capacity= 3231;
Profit =[ 86,22,92,93,38,103,94,18,22,42,26,55,93,30,19,101,72,48,18,77,16,19,28,82,42,82,10,74,29,18,14,55,32,96,37,102,93,100,63,62,96,49,22,85,96,46,64,41,76,115,103,101,79,56,77,36,83,34,73,99,112,80,70,69,54,95,108,74,75,17,71,100,105,94,92,54,13,81,96,53,40,6,71,5,73,93,95,79,46,107,95,80,81,86,33,30,78,64,63,39];
Weight =[ 92,26,96,85,48,109,100,14,20,40,28,51,93,28,11,101,64,58,22,81,26,17,34,84,40,90,12,68,21,24,10,57,26,104,33,94,97,108,65,56,90,49,14,83,88,38,58,43,86,107,107,101,87,58,75,32,87,42,73,107,106,82,68,71,48,95,102,82,79,15,81,94,103,92,84,60,19,77,90,63,48,16,81,13,65,89,99,85,42,101,99,90,77,80,37,28,76,58,69,41];
